540
1   1   0    88   0 42 19 40 41 13 4 0
1   2   0    134  0 44 17 47 18 14 25 0
2   1   0    143  0 12 46 27 32 1 20 35 36 3 22 0
2   2   0    143  0 48 8 28 31 26 7 23 43 24 6 0
3   1   0    122  0 49 10 33 45 15 37 5 38 9 0
3   2   0    0    0 0
4   1   0    0    0 0
4   2   0    147  0 21 34 30 39 50 16 11 2 29 0